NAME : tsp40_22.199.tour
COMMENT : Length = 199
COMMENT : Found by LKH [Keld Helsgaun]
TYPE : TOUR
DIMENSION : 40
TOUR_SECTION
1
3
18
17
23
37
35
40
13
26
36
7
28
19
9
22
39
5
32
16
33
27
21
29
8
6
25
14
15
11
4
12
31
10
30
34
38
24
2
20
-1
EOF
